15
-1 279 206 669 333 304 307 657 220 458 118 481 361 540 379 
279 -1 338 510 194 83 507 412 292 205 372 288 193 296 380 
206 338 -1 534 477 402 501 600 62 543 305 609 296 493 194 
669 510 534 -1 696 583 969 262 480 599 788 734 326 280 357 
333 194 477 696 -1 113 428 555 447 182 370 149 387 451 563 
304 83 402 583 113 -1 480 456 363 154 375 209 274 347 462 
307 507 501 969 428 480 -1 918 526 608 195 556 649 801 685 
657 412 600 262 555 456 918 -1 537 409 767 545 308 118 484 
220 292 62 480 447 363 526 537 -1 496 332 572 233 431 159 
458 205 543 599 182 154 608 409 496 -1 525 137 345 325 568 
118 372 305 788 370 375 195 767 332 525 -1 518 478 649 491 
481 288 609 734 149 209 556 545 572 137 518 -1 461 462 668 
361 193 296 326 387 274 649 308 233 345 478 461 -1 197 233 
540 296 493 280 451 347 801 118 431 325 649 462 197 -1 400 
379 380 194 357 563 462 685 484 159 568 491 668 233 400 -1 
